575,512
740,415
491,216
563,388
1041,766
657,423
945,42
607,178
852,351
602,909
439,582
1006,457
254,623
880,470
1137,554
1020,745
601,446
681,-14
521,487
810,7
888,438
947,599
839,624
764,150
707,393
852,461
663,524
598,662
852,351
723,140
1162,161
406,131
1071,406
804,237
787,352
464,833
523,188
723,672
630,81
